
Gurobi 10.0.1 (linux64, Java) logging started Sat 22 Apr 2023 10:44:56 AM CEST

Set parameter Username
Academic license - for non-commercial use only - expires 2024-02-12
Set parameter Presolve to value 0
Set parameter Method to value 0
Gurobi Optimizer version 10.0.1 build v10.0.1rc0 (linux64)

CPU model: AMD E2-7110 APU with AMD Radeon R2 Graphics, instruction set [SSE2|AVX]
Thread count: 4 physical cores, 4 logical processors, using up to 4 threads

Optimize a model with 2 rows, 3 columns and 5 nonzeros
Model fingerprint: 0xc5448217
Coefficient statistics:
  Matrix range     [1e+00, 3e+00]
  Objective range  [1e+00, 2e+00]
  Bounds range     [0e+00, 0e+00]
  RHS range        [1e+00, 4e+00]
Iteration    Objective       Primal Inf.    Dual Inf.      Time
       0   -0.0000000e+00   0.000000e+00   4.000000e+00      0s
       2    3.0000000e+00   0.000000e+00   0.000000e+00      0s

Solved in 2 iterations and 0.01 seconds (0.00 work units)
Optimal objective  3.000000000e+00
